nNurses = 165;
nHours = 34;
minHours = 9;
maxHours = 13;
maxConsec = 11;
maxPresence = 32;
demand = [44, 48, 43, 41, 41, 39, 35, 37, 36, 40, 43, 40, 43, 47, 44, 44, 46, 45, 48, 44, 49, 50, 46, 43, 42, 37, 36, 36, 34, 31, 35, 31, 35, 32];
